webassembly/ejemplos_dzn/fails/14_unsat_f_h_all.dzn
TERM = { '.', 'local_0', 's(1)', 's(3)', 's(5)', 'local_1', 's(2)', 's(0)', 's(4)'};
null = '.';
s = 14;
n = 9;
ndeps = 3;
max_registers_sz = 4;
NR = 1;
registers = [|'local_1', 's(2)'|];
dependencies = [|'i32.load_2', 'i32.store_8', |'i32.store_8', 'i32.load_11', |'i32.load_11', 'call[function_index(1)]_12'|];
GET_ENUM = { GET1, GET2, GET3, GET4, GET5};
SET_ENUM = { SET1, SET2, SET3, SET4, SET5};
TEE_ENUM = { TEE1, TEE2, TEE3, TEE4, TEE5};
N = 8;
OP = { 'i32.const_0', 'i32.sub_0', 'i32.shl_0', 'call[function_index(1)]_12', 'i32.load_2', 'i32.store_8', 'i32.load_11', 'local.get_0' };
in_ops = [0, 2, 2, 2, 1, 2, 1, 0 ];
out_ops = [1, 1, 1, 1, 1, 0, 1, 1 ];
in1 = ['.', 'local_1', 's(1)', 's(3)', 'local_0', 's(2)', 'local_0', '.' ];
in2 = ['.', 's(5)', 's(0)', 's(2)', '.', 'local_0', '.', '.' ];
in3 = ['.', '.', '.', '.', '.', '.', '.', '.' ];
out1 = ['s(5)', 's(1)', 's(2)', 's(4)', 's(0)', '.', 's(3)', 'local_0' ];
out2 = ['.', '.', '.', '.', '.', '.', '.', '.' ];
out3 = ['.', '.', '.', '.', '.', '.', '.', '.' ];
comm = [false, false, false, false, false, false, false, false ];
gas = [1, 1, 1, 1, 1, 1, 1, 1 ];
sz = [1, 1, 1, 1, 1, 1, 1, 1 ];
stor = [false, false, false, true, false, true, false, false ];
lb = [ 1, 1, 1, 1, 1, 1, 1, 1 ];
ub = [ 14, 14, 14, 14, 14, 14, 14, 14 ];
startstack = [ null, null, null, null, null, null, null, null, null ];
endstack = [ null, null, null, null, null, null, null, null, null ];
